p edge 60 185
v 1 5
v 2 1
v 3 2
v 4 5
v 5 3
v 6 7
v 7 9
v 8 8
v 9 4
v 10 9
v 11 10
v 12 3
v 13 8
v 14 4
v 15 5
v 16 1
v 17 5
v 18 7
v 19 6
v 20 1
v 21 5
v 22 10
v 23 8
v 24 7
v 25 7
v 26 8
v 27 2
v 28 10
v 29 6
v 30 2
v 31 1
v 32 1
v 33 2
v 34 3
v 35 5
v 36 5
v 37 9
v 38 4
v 39 2
v 40 2
v 41 2
v 42 2
v 43 5
v 44 10
v 45 5
v 46 9
v 47 10
v 48 10
v 49 5
v 50 6
v 51 1
v 52 10
v 53 5
v 54 9
v 55 6
v 56 1
v 57 6
v 58 8
v 59 1
v 60 2
e 1 2
e 1 3
e 1 51
e 2 3
e 2 23
e 2 30
e 2 45
e 2 51
e 3 23
e 3 25
e 3 30
e 3 45
e 3 51
e 4 6
e 4 7
e 4 12
e 4 18
e 4 27
e 5 15
e 5 21
e 5 52
e 5 53
e 6 7
e 6 12
e 6 18
e 6 27
e 7 12
e 7 18
e 7 27
e 7 43
e 7 57
e 7 59
e 8 13
e 8 21
e 8 29
e 8 46
e 8 52
e 8 53
e 9 10
e 9 35
e 9 38
e 9 50
e 9 60
e 10 36
e 10 38
e 10 47
e 10 50
e 10 60
e 11 22
e 11 24
e 11 49
e 11 56
e 12 18
e 12 27
e 13 17
e 13 29
e 13 31
e 13 42
e 13 46
e 13 52
e 13 53
e 14 19
e 14 20
e 14 24
e 14 25
e 14 26
e 14 44
e 14 58
e 15 21
e 15 33
e 15 35
e 15 52
e 16 28
e 16 31
e 16 33
e 16 34
e 16 37
e 16 39
e 16 42
e 16 48
e 16 54
e 17 29
e 17 31
e 17 32
e 17 41
e 17 46
e 18 27
e 18 59
e 19 20
e 19 47
e 19 50
e 19 58
e 20 25
e 20 30
e 20 44
e 20 58
e 21 52
e 21 53
e 22 28
e 22 43
e 22 48
e 22 49
e 22 56
e 22 59
e 23 24
e 23 25
e 23 30
e 23 45
e 24 25
e 24 44
e 24 45
e 24 49
e 25 30
e 25 44
e 25 45
e 25 58
e 26 35
e 26 44
e 27 59
e 28 34
e 28 37
e 28 39
e 28 43
e 28 48
e 28 54
e 28 56
e 29 31
e 29 32
e 29 46
e 29 53
e 30 45
e 30 58
e 31 37
e 31 42
e 31 52
e 31 53
e 32 37
e 32 39
e 32 41
e 32 54
e 33 42
e 33 48
e 34 37
e 34 39
e 34 42
e 34 43
e 34 48
e 34 54
e 35 38
e 36 38
e 36 47
e 36 50
e 36 60
e 37 39
e 37 41
e 37 42
e 37 48
e 37 54
e 38 47
e 38 50
e 38 60
e 39 41
e 39 54
e 40 55
e 41 54
e 42 48
e 42 52
e 42 53
e 42 54
e 43 54
e 43 56
e 43 57
e 43 59
e 44 58
e 45 55
e 47 50
e 47 60
e 49 55
e 49 56
e 49 59
e 50 60
e 52 53
e 56 57
e 56 59
e 57 59
